(set-logic QF_LRA)
(declare-fun fluent_started_i0_t0@0 () Bool)
(declare-fun fluent_started_i1_t0@0 () Bool)
(declare-fun fluent_started_i2_t0@0 () Bool)
(declare-fun fluent_started_i0_t1@0 () Bool)
(declare-fun fluent_started_i1_t1@0 () Bool)
(declare-fun fluent_started_i2_t1@0 () Bool)
(declare-fun fluent_started_i0_t2@0 () Bool)
(declare-fun fluent_started_i1_t2@0 () Bool)
(declare-fun fluent_started_i2_t2@0 () Bool)
(declare-fun fluent_started_i0_t3@0 () Bool)
(declare-fun fluent_started_i1_t3@0 () Bool)
(declare-fun fluent_started_i2_t3@0 () Bool)
(declare-fun fluent_started_i0_t4@0 () Bool)
(declare-fun fluent_counter_t0@1 () Real)
(declare-fun fluent_ready_i0_t0@0 () Bool)
(declare-fun fluent_ready_i1_t0@0 () Bool)
(declare-fun fluent_ready_i2_t0@0 () Bool)
(declare-fun fluent_ready_i0_t1@0 () Bool)
(declare-fun fluent_ready_i1_t1@0 () Bool)
(declare-fun fluent_ready_i2_t1@0 () Bool)
(declare-fun fluent_ready_i0_t2@0 () Bool)
(declare-fun fluent_ready_i1_t2@0 () Bool)
(declare-fun fluent_ready_i2_t2@0 () Bool)
(declare-fun fluent_ready_i0_t3@0 () Bool)
(declare-fun fluent_ready_i1_t3@0 () Bool)
(declare-fun fluent_ready_i2_t3@0 () Bool)
(declare-fun fluent_ready_i0_t4@0 () Bool)
(declare-fun fluent_ready_i1_t4@0 () Bool)
(declare-fun fluent_ready_i2_t4@0 () Bool)
(declare-fun fluent_started_i1_t4@0 () Bool)
(declare-fun fluent_started_i2_t4@0 () Bool)
(declare-fun fluent_busy_@0 () Bool)
(declare-fun fluent_treated_i0_t0@0 () Bool)
(declare-fun fluent_treated_i1_t0@0 () Bool)
(declare-fun fluent_treated_i2_t0@0 () Bool)
(declare-fun fluent_treated_i0_t1@0 () Bool)
(declare-fun fluent_treated_i1_t1@0 () Bool)
(declare-fun fluent_treated_i2_t1@0 () Bool)
(declare-fun fluent_treated_i0_t2@0 () Bool)
(declare-fun fluent_treated_i1_t2@0 () Bool)
(declare-fun fluent_treated_i2_t2@0 () Bool)
(declare-fun fluent_treated_i0_t3@0 () Bool)
(declare-fun fluent_treated_i1_t3@0 () Bool)
(declare-fun fluent_treated_i2_t3@0 () Bool)
(declare-fun fluent_treated_i0_t4@0 () Bool)
(declare-fun fluent_treated_i1_t4@0 () Bool)
(declare-fun fluent_treated_i2_t4@0 () Bool)
(declare-fun fluent_counter_t2@1 () Real)
(declare-fun fluent_counter_t3@1 () Real)
(declare-fun fluent_counter_t4@1 () Real)
(declare-fun fluent_busy_@1 () Bool)
(declare-fun fluent_started_i0_t0@1 () Bool)
(declare-fun fluent_started_i1_t0@1 () Bool)
(declare-fun fluent_started_i2_t0@1 () Bool)
(declare-fun fluent_started_i0_t1@1 () Bool)
(declare-fun fluent_started_i1_t1@1 () Bool)
(declare-fun fluent_started_i2_t1@1 () Bool)
(declare-fun fluent_started_i0_t2@1 () Bool)
(declare-fun fluent_started_i1_t2@1 () Bool)
(declare-fun fluent_started_i2_t2@1 () Bool)
(declare-fun fluent_started_i0_t3@1 () Bool)
(declare-fun fluent_started_i1_t3@1 () Bool)
(declare-fun fluent_started_i2_t3@1 () Bool)
(declare-fun fluent_started_i0_t4@1 () Bool)
(declare-fun fluent_started_i1_t4@1 () Bool)
(declare-fun fluent_started_i2_t4@1 () Bool)
(declare-fun fluent_counter_t0@0 () Real)
(declare-fun fluent_counter_t1@0 () Real)
(declare-fun fluent_treated_i0_t0@1 () Bool)
(declare-fun fluent_treated_i1_t0@1 () Bool)
(declare-fun fluent_counter_t2@0 () Real)
(declare-fun fluent_treated_i2_t0@1 () Bool)
(declare-fun fluent_treated_i0_t1@1 () Bool)
(declare-fun fluent_counter_t3@0 () Real)
(declare-fun fluent_treated_i1_t1@1 () Bool)
(declare-fun fluent_counter_t4@0 () Real)
(declare-fun fluent_treated_i2_t1@1 () Bool)
(declare-fun fluent_treated_i0_t2@1 () Bool)
(declare-fun fluent_treated_i1_t2@1 () Bool)
(declare-fun fluent_treated_i2_t2@1 () Bool)
(declare-fun fluent_treated_i0_t3@1 () Bool)
(declare-fun dur_make_treatment@1 () Real)
(declare-fun fluent_treated_i1_t3@1 () Bool)
(declare-fun fluent_treated_i2_t3@1 () Bool)
(declare-fun t@1 () Real)
(declare-fun fluent_treated_i0_t4@1 () Bool)
(declare-fun fluent_treated_i1_t4@1 () Bool)
(declare-fun fluent_treated_i2_t4@1 () Bool)
(declare-fun parameter_make_treatment_t@1 () Real)
(declare-fun parameter_make_treatment_i@1 () Real)
(declare-fun fluent_ready_i0_t0@1 () Bool)
(declare-fun fluent_ready_i1_t0@1 () Bool)
(declare-fun fluent_ready_i2_t0@1 () Bool)
(declare-fun fluent_ready_i0_t1@1 () Bool)
(declare-fun fluent_ready_i1_t1@1 () Bool)
(declare-fun fluent_ready_i2_t1@1 () Bool)
(declare-fun fluent_ready_i0_t2@1 () Bool)
(declare-fun fluent_ready_i1_t2@1 () Bool)
(declare-fun fluent_ready_i2_t2@1 () Bool)
(declare-fun fluent_ready_i0_t3@1 () Bool)
(declare-fun fluent_ready_i1_t3@1 () Bool)
(declare-fun fluent_ready_i2_t3@1 () Bool)
(declare-fun fluent_counter_t1@1 () Real)
(declare-fun fluent_ready_i0_t4@1 () Bool)
(declare-fun fluent_ready_i1_t4@1 () Bool)
(declare-fun fluent_ready_i2_t4@1 () Bool)
(declare-fun act_make_treatment@1 () Bool)
(declare-fun parameter_make_treatment_next@1 () Real)
(assert (let ((.def_0 (<= fluent_counter_t2@1 31.0))) (let ((.def_1 (<= 0.0 fluent_counter_t2@1))) (let ((.def_2 (= parameter_make_treatment_next@1 7.0))) (let ((.def_3 (= parameter_make_treatment_next@1 6.0))) (let ((.def_4 (= parameter_make_treatment_next@1 5.0))) (let ((.def_5 (= parameter_make_treatment_next@1 4.0))) (let ((.def_6 (= parameter_make_treatment_next@1 3.0))) (let ((.def_7 (or .def_6 .def_5 .def_4 .def_3 .def_2))) (let ((.def_8 (<= fluent_counter_t1@1 31.0))) (let ((.def_9 (= parameter_make_treatment_i@1 2.0))) (let ((.def_10 (= parameter_make_treatment_i@1 1.0))) (let ((.def_11 (= parameter_make_treatment_i@1 0.0))) (let ((.def_12 (or .def_11 .def_10 .def_9))) (let ((.def_13 (<= fluent_counter_t0@1 31.0))) (let ((.def_14 (<= 0.0 fluent_counter_t0@1))) (let ((.def_15 (= parameter_make_treatment_t@1 7.0))) (let ((.def_16 (= parameter_make_treatment_t@1 6.0))) (let ((.def_17 (= parameter_make_treatment_t@1 5.0))) (let ((.def_18 (= parameter_make_treatment_t@1 4.0))) (let ((.def_19 (= parameter_make_treatment_t@1 3.0))) (let ((.def_20 (or .def_19 .def_18 .def_17 .def_16 .def_15))) (let ((.def_21 (<= 0.0 fluent_counter_t1@1))) (let ((.def_22 (<= fluent_counter_t4@1 31.0))) (let ((.def_23 (<= 0.0 fluent_counter_t4@1))) (let ((.def_24 (<= fluent_counter_t3@1 31.0))) (let ((.def_25 (<= 0.0 fluent_counter_t3@1))) (let ((.def_26 (and act_make_treatment@1 true .def_15))) (let ((.def_27 (= fluent_counter_t4@0 fluent_counter_t4@1))) (let ((.def_28 (not .def_27))) (let ((.def_29 (=> .def_28 .def_26))) (let ((.def_30 (and act_make_treatment@1 true .def_16))) (let ((.def_31 (= fluent_counter_t3@0 fluent_counter_t3@1))) (let ((.def_32 (not .def_31))) (let ((.def_33 (=> .def_32 .def_30))) (let ((.def_34 (and act_make_treatment@1 true .def_17))) (let ((.def_35 (= fluent_counter_t2@0 fluent_counter_t2@1))) (let ((.def_36 (not .def_35))) (let ((.def_37 (=> .def_36 .def_34))) (let ((.def_38 (and act_make_treatment@1 true .def_18))) (let ((.def_39 (= fluent_counter_t1@0 fluent_counter_t1@1))) (let ((.def_40 (not .def_39))) (let ((.def_41 (=> .def_40 .def_38))) (let ((.def_42 (and act_make_treatment@1 true .def_19))) (let ((.def_43 (= fluent_counter_t0@0 fluent_counter_t0@1))) (let ((.def_44 (not .def_43))) (let ((.def_45 (=> .def_44 .def_42))) (let ((.def_46 (+ t@1 10.0))) (let ((.def_47 (= t@1 .def_46))) (let ((.def_48 (and act_make_treatment@1 true .def_47 .def_9 .def_2))) (let ((.def_49 (= fluent_ready_i2_t4@0 fluent_ready_i2_t4@1))) (let ((.def_50 (not .def_49))) (let ((.def_51 (=> .def_50 .def_48))) (let ((.def_52 (and act_make_treatment@1 true .def_47 .def_10 .def_2))) (let ((.def_53 (= fluent_ready_i1_t4@0 fluent_ready_i1_t4@1))) (let ((.def_54 (not .def_53))) (let ((.def_55 (=> .def_54 .def_52))) (let ((.def_56 (and act_make_treatment@1 true .def_47 .def_11 .def_2))) (let ((.def_57 (= fluent_ready_i0_t4@0 fluent_ready_i0_t4@1))) (let ((.def_58 (not .def_57))) (let ((.def_59 (=> .def_58 .def_56))) (let ((.def_60 (and act_make_treatment@1 true .def_47 .def_9 .def_3))) (let ((.def_61 (= fluent_ready_i2_t3@0 fluent_ready_i2_t3@1))) (let ((.def_62 (not .def_61))) (let ((.def_63 (=> .def_62 .def_60))) (let ((.def_64 (and act_make_treatment@1 true .def_47 .def_10 .def_3))) (let ((.def_65 (= fluent_ready_i1_t3@0 fluent_ready_i1_t3@1))) (let ((.def_66 (not .def_65))) (let ((.def_67 (=> .def_66 .def_64))) (let ((.def_68 (and act_make_treatment@1 true .def_47 .def_11 .def_3))) (let ((.def_69 (= fluent_ready_i0_t3@0 fluent_ready_i0_t3@1))) (let ((.def_70 (not .def_69))) (let ((.def_71 (=> .def_70 .def_68))) (let ((.def_72 (and act_make_treatment@1 true .def_47 .def_9 .def_4))) (let ((.def_73 (= fluent_ready_i2_t2@0 fluent_ready_i2_t2@1))) (let ((.def_74 (not .def_73))) (let ((.def_75 (=> .def_74 .def_72))) (let ((.def_76 (and act_make_treatment@1 true .def_47 .def_10 .def_4))) (let ((.def_77 (= fluent_ready_i1_t2@0 fluent_ready_i1_t2@1))) (let ((.def_78 (not .def_77))) (let ((.def_79 (=> .def_78 .def_76))) (let ((.def_80 (and act_make_treatment@1 true .def_47 .def_11 .def_4))) (let ((.def_81 (= fluent_ready_i0_t2@0 fluent_ready_i0_t2@1))) (let ((.def_82 (not .def_81))) (let ((.def_83 (=> .def_82 .def_80))) (let ((.def_84 (and act_make_treatment@1 true .def_47 .def_9 .def_5))) (let ((.def_85 (= fluent_ready_i2_t1@0 fluent_ready_i2_t1@1))) (let ((.def_86 (not .def_85))) (let ((.def_87 (=> .def_86 .def_84))) (let ((.def_88 (and act_make_treatment@1 true .def_47 .def_10 .def_5))) (let ((.def_89 (= fluent_ready_i1_t1@0 fluent_ready_i1_t1@1))) (let ((.def_90 (not .def_89))) (let ((.def_91 (=> .def_90 .def_88))) (let ((.def_92 (and act_make_treatment@1 true .def_47 .def_11 .def_5))) (let ((.def_93 (= fluent_ready_i0_t1@0 fluent_ready_i0_t1@1))) (let ((.def_94 (not .def_93))) (let ((.def_95 (=> .def_94 .def_92))) (let ((.def_96 (and act_make_treatment@1 true .def_47 .def_9 .def_6))) (let ((.def_97 (= fluent_ready_i2_t0@0 fluent_ready_i2_t0@1))) (let ((.def_98 (not .def_97))) (let ((.def_99 (=> .def_98 .def_96))) (let ((.def_100 (and act_make_treatment@1 true .def_47 .def_10 .def_6))) (let ((.def_101 (= fluent_ready_i1_t0@0 fluent_ready_i1_t0@1))) (let ((.def_102 (not .def_101))) (let ((.def_103 (=> .def_102 .def_100))) (let ((.def_104 (and act_make_treatment@1 true .def_47 .def_11 .def_6))) (let ((.def_105 (= fluent_ready_i0_t0@0 fluent_ready_i0_t0@1))) (let ((.def_106 (not .def_105))) (let ((.def_107 (=> .def_106 .def_104))) (let ((.def_108 (and act_make_treatment@1 true .def_9 .def_15))) (let ((.def_109 (= fluent_started_i2_t4@0 fluent_started_i2_t4@1))) (let ((.def_110 (not .def_109))) (let ((.def_111 (=> .def_110 .def_108))) (let ((.def_112 (and act_make_treatment@1 true .def_10 .def_15))) (let ((.def_113 (= fluent_started_i1_t4@0 fluent_started_i1_t4@1))) (let ((.def_114 (not .def_113))) (let ((.def_115 (=> .def_114 .def_112))) (let ((.def_116 (and act_make_treatment@1 true .def_11 .def_15))) (let ((.def_117 (= fluent_started_i0_t4@0 fluent_started_i0_t4@1))) (let ((.def_118 (not .def_117))) (let ((.def_119 (=> .def_118 .def_116))) (let ((.def_120 (and act_make_treatment@1 true .def_9 .def_16))) (let ((.def_121 (= fluent_started_i2_t3@0 fluent_started_i2_t3@1))) (let ((.def_122 (not .def_121))) (let ((.def_123 (=> .def_122 .def_120))) (let ((.def_124 (and act_make_treatment@1 true .def_10 .def_16))) (let ((.def_125 (= fluent_started_i1_t3@0 fluent_started_i1_t3@1))) (let ((.def_126 (not .def_125))) (let ((.def_127 (=> .def_126 .def_124))) (let ((.def_128 (and act_make_treatment@1 true .def_11 .def_16))) (let ((.def_129 (= fluent_started_i0_t3@0 fluent_started_i0_t3@1))) (let ((.def_130 (not .def_129))) (let ((.def_131 (=> .def_130 .def_128))) (let ((.def_132 (and act_make_treatment@1 true .def_9 .def_17))) (let ((.def_133 (= fluent_started_i2_t2@0 fluent_started_i2_t2@1))) (let ((.def_134 (not .def_133))) (let ((.def_135 (=> .def_134 .def_132))) (let ((.def_136 (and act_make_treatment@1 true .def_10 .def_17))) (let ((.def_137 (= fluent_started_i1_t2@0 fluent_started_i1_t2@1))) (let ((.def_138 (not .def_137))) (let ((.def_139 (=> .def_138 .def_136))) (let ((.def_140 (and act_make_treatment@1 true .def_11 .def_17))) (let ((.def_141 (= fluent_started_i0_t2@0 fluent_started_i0_t2@1))) (let ((.def_142 (not .def_141))) (let ((.def_143 (=> .def_142 .def_140))) (let ((.def_144 (and act_make_treatment@1 true .def_9 .def_18))) (let ((.def_145 (= fluent_started_i2_t1@0 fluent_started_i2_t1@1))) (let ((.def_146 (not .def_145))) (let ((.def_147 (=> .def_146 .def_144))) (let ((.def_148 (and act_make_treatment@1 true .def_10 .def_18))) (let ((.def_149 (= fluent_started_i1_t1@0 fluent_started_i1_t1@1))) (let ((.def_150 (not .def_149))) (let ((.def_151 (=> .def_150 .def_148))) (let ((.def_152 (and act_make_treatment@1 true .def_11 .def_18))) (let ((.def_153 (= fluent_started_i0_t1@0 fluent_started_i0_t1@1))) (let ((.def_154 (not .def_153))) (let ((.def_155 (=> .def_154 .def_152))) (let ((.def_156 (and act_make_treatment@1 true .def_9 .def_19))) (let ((.def_157 (= fluent_started_i2_t0@0 fluent_started_i2_t0@1))) (let ((.def_158 (not .def_157))) (let ((.def_159 (=> .def_158 .def_156))) (let ((.def_160 (and act_make_treatment@1 true .def_10 .def_19))) (let ((.def_161 (= fluent_started_i1_t0@0 fluent_started_i1_t0@1))) (let ((.def_162 (not .def_161))) (let ((.def_163 (=> .def_162 .def_160))) (let ((.def_164 (and act_make_treatment@1 true .def_11 .def_19))) (let ((.def_165 (= fluent_started_i0_t0@0 fluent_started_i0_t0@1))) (let ((.def_166 (not .def_165))) (let ((.def_167 (=> .def_166 .def_164))) (let ((.def_168 (+ t@1 4.0))) (let ((.def_169 (= t@1 .def_168))) (let ((.def_170 (and act_make_treatment@1 true .def_169 .def_9 .def_15))) (let ((.def_171 (= fluent_treated_i2_t4@0 fluent_treated_i2_t4@1))) (let ((.def_172 (not .def_171))) (let ((.def_173 (=> .def_172 .def_170))) (let ((.def_174 (and act_make_treatment@1 true .def_169 .def_10 .def_15))) (let ((.def_175 (= fluent_treated_i1_t4@0 fluent_treated_i1_t4@1))) (let ((.def_176 (not .def_175))) (let ((.def_177 (=> .def_176 .def_174))) (let ((.def_178 (and act_make_treatment@1 true .def_169 .def_11 .def_15))) (let ((.def_179 (= fluent_treated_i0_t4@0 fluent_treated_i0_t4@1))) (let ((.def_180 (not .def_179))) (let ((.def_181 (=> .def_180 .def_178))) (let ((.def_182 (and act_make_treatment@1 true .def_169 .def_9 .def_16))) (let ((.def_183 (= fluent_treated_i2_t3@0 fluent_treated_i2_t3@1))) (let ((.def_184 (not .def_183))) (let ((.def_185 (=> .def_184 .def_182))) (let ((.def_186 (and act_make_treatment@1 true .def_169 .def_10 .def_16))) (let ((.def_187 (= fluent_treated_i1_t3@0 fluent_treated_i1_t3@1))) (let ((.def_188 (not .def_187))) (let ((.def_189 (=> .def_188 .def_186))) (let ((.def_190 (and act_make_treatment@1 true .def_169 .def_11 .def_16))) (let ((.def_191 (= fluent_treated_i0_t3@0 fluent_treated_i0_t3@1))) (let ((.def_192 (not .def_191))) (let ((.def_193 (=> .def_192 .def_190))) (let ((.def_194 (and act_make_treatment@1 true .def_169 .def_9 .def_17))) (let ((.def_195 (= fluent_treated_i2_t2@0 fluent_treated_i2_t2@1))) (let ((.def_196 (not .def_195))) (let ((.def_197 (=> .def_196 .def_194))) (let ((.def_198 (and act_make_treatment@1 true .def_169 .def_10 .def_17))) (let ((.def_199 (= fluent_treated_i1_t2@0 fluent_treated_i1_t2@1))) (let ((.def_200 (not .def_199))) (let ((.def_201 (=> .def_200 .def_198))) (let ((.def_202 (and act_make_treatment@1 true .def_169 .def_11 .def_17))) (let ((.def_203 (= fluent_treated_i0_t2@0 fluent_treated_i0_t2@1))) (let ((.def_204 (not .def_203))) (let ((.def_205 (=> .def_204 .def_202))) (let ((.def_206 (and act_make_treatment@1 true .def_169 .def_9 .def_18))) (let ((.def_207 (= fluent_treated_i2_t1@0 fluent_treated_i2_t1@1))) (let ((.def_208 (not .def_207))) (let ((.def_209 (=> .def_208 .def_206))) (let ((.def_210 (and act_make_treatment@1 true .def_169 .def_10 .def_18))) (let ((.def_211 (= fluent_treated_i1_t1@0 fluent_treated_i1_t1@1))) (let ((.def_212 (not .def_211))) (let ((.def_213 (=> .def_212 .def_210))) (let ((.def_214 (and act_make_treatment@1 true .def_169 .def_11 .def_18))) (let ((.def_215 (= fluent_treated_i0_t1@0 fluent_treated_i0_t1@1))) (let ((.def_216 (not .def_215))) (let ((.def_217 (=> .def_216 .def_214))) (let ((.def_218 (and act_make_treatment@1 true .def_169 .def_9 .def_19))) (let ((.def_219 (= fluent_treated_i2_t0@0 fluent_treated_i2_t0@1))) (let ((.def_220 (not .def_219))) (let ((.def_221 (=> .def_220 .def_218))) (let ((.def_222 (and act_make_treatment@1 true .def_169 .def_10 .def_19))) (let ((.def_223 (= fluent_treated_i1_t0@0 fluent_treated_i1_t0@1))) (let ((.def_224 (not .def_223))) (let ((.def_225 (=> .def_224 .def_222))) (let ((.def_226 (and act_make_treatment@1 true .def_169 .def_11 .def_19))) (let ((.def_227 (= fluent_treated_i0_t0@0 fluent_treated_i0_t0@1))) (let ((.def_228 (not .def_227))) (let ((.def_229 (=> .def_228 .def_226))) (let ((.def_230 (and act_make_treatment@1 true .def_169))) (let ((.def_231 (and act_make_treatment@1 true))) (let ((.def_232 (and .def_231 .def_230))) (let ((.def_233 (not .def_232))) (let ((.def_234 (or .def_231 .def_230))) (let ((.def_235 (= fluent_busy_@0 fluent_busy_@1))) (let ((.def_236 (not .def_235))) (let ((.def_237 (=> .def_236 .def_234))) (let ((.def_238 (and .def_237 .def_233 .def_229 .def_225 .def_221 .def_217 .def_213 .def_209 .def_205 .def_201 .def_197 .def_193 .def_189 .def_185 .def_181 .def_177 .def_173 .def_167 .def_163 .def_159 .def_155 .def_151 .def_147 .def_143 .def_139 .def_135 .def_131 .def_127 .def_123 .def_119 .def_115 .def_111 .def_107 .def_103 .def_99 .def_95 .def_91 .def_87 .def_83 .def_79 .def_75 .def_71 .def_67 .def_63 .def_59 .def_55 .def_51 .def_45 .def_41 .def_37 .def_33 .def_29))) (let ((.def_239 (<= 0.0 t@1))) (let ((.def_240 (and .def_10 .def_6))) (let ((.def_241 (ite .def_240 fluent_ready_i1_t0@1 fluent_ready_i0_t0@1))) (let ((.def_242 (and .def_9 .def_6))) (let ((.def_243 (ite .def_242 fluent_ready_i2_t0@1 .def_241))) (let ((.def_244 (and .def_11 .def_5))) (let ((.def_245 (ite .def_244 fluent_ready_i0_t1@1 .def_243))) (let ((.def_246 (and .def_10 .def_5))) (let ((.def_247 (ite .def_246 fluent_ready_i1_t1@1 .def_245))) (let ((.def_248 (and .def_9 .def_5))) (let ((.def_249 (ite .def_248 fluent_ready_i2_t1@1 .def_247))) (let ((.def_250 (and .def_11 .def_4))) (let ((.def_251 (ite .def_250 fluent_ready_i0_t2@1 .def_249))) (let ((.def_252 (and .def_10 .def_4))) (let ((.def_253 (ite .def_252 fluent_ready_i1_t2@1 .def_251))) (let ((.def_254 (and .def_9 .def_4))) (let ((.def_255 (ite .def_254 fluent_ready_i2_t2@1 .def_253))) (let ((.def_256 (and .def_11 .def_3))) (let ((.def_257 (ite .def_256 fluent_ready_i0_t3@1 .def_255))) (let ((.def_258 (and .def_10 .def_3))) (let ((.def_259 (ite .def_258 fluent_ready_i1_t3@1 .def_257))) (let ((.def_260 (and .def_9 .def_3))) (let ((.def_261 (ite .def_260 fluent_ready_i2_t3@1 .def_259))) (let ((.def_262 (and .def_11 .def_2))) (let ((.def_263 (ite .def_262 fluent_ready_i0_t4@1 .def_261))) (let ((.def_264 (and .def_10 .def_2))) (let ((.def_265 (ite .def_264 fluent_ready_i1_t4@1 .def_263))) (let ((.def_266 (and .def_9 .def_2))) (let ((.def_267 (ite .def_266 fluent_ready_i2_t4@1 .def_265))) (let ((.def_268 (= .def_267 true))) (let ((.def_269 (=> true .def_268))) (let ((.def_270 (and .def_47 .def_269))) (let ((.def_271 (= fluent_busy_@1 false))) (let ((.def_272 (=> true .def_271))) (let ((.def_273 (and .def_10 .def_19))) (let ((.def_274 (ite .def_273 fluent_treated_i1_t0@1 fluent_treated_i0_t0@1))) (let ((.def_275 (and .def_9 .def_19))) (let ((.def_276 (ite .def_275 fluent_treated_i2_t0@1 .def_274))) (let ((.def_277 (and .def_11 .def_18))) (let ((.def_278 (ite .def_277 fluent_treated_i0_t1@1 .def_276))) (let ((.def_279 (and .def_10 .def_18))) (let ((.def_280 (ite .def_279 fluent_treated_i1_t1@1 .def_278))) (let ((.def_281 (and .def_9 .def_18))) (let ((.def_282 (ite .def_281 fluent_treated_i2_t1@1 .def_280))) (let ((.def_283 (and .def_11 .def_17))) (let ((.def_284 (ite .def_283 fluent_treated_i0_t2@1 .def_282))) (let ((.def_285 (and .def_10 .def_17))) (let ((.def_286 (ite .def_285 fluent_treated_i1_t2@1 .def_284))) (let ((.def_287 (and .def_9 .def_17))) (let ((.def_288 (ite .def_287 fluent_treated_i2_t2@1 .def_286))) (let ((.def_289 (and .def_11 .def_16))) (let ((.def_290 (ite .def_289 fluent_treated_i0_t3@1 .def_288))) (let ((.def_291 (and .def_10 .def_16))) (let ((.def_292 (ite .def_291 fluent_treated_i1_t3@1 .def_290))) (let ((.def_293 (and .def_9 .def_16))) (let ((.def_294 (ite .def_293 fluent_treated_i2_t3@1 .def_292))) (let ((.def_295 (and .def_11 .def_15))) (let ((.def_296 (ite .def_295 fluent_treated_i0_t4@1 .def_294))) (let ((.def_297 (and .def_10 .def_15))) (let ((.def_298 (ite .def_297 fluent_treated_i1_t4@1 .def_296))) (let ((.def_299 (and .def_9 .def_15))) (let ((.def_300 (ite .def_299 fluent_treated_i2_t4@1 .def_298))) (let ((.def_301 (= .def_300 true))) (let ((.def_302 (=> true .def_301))) (let ((.def_303 (and .def_169 .def_302 .def_272))) (let ((.def_304 (ite .def_273 fluent_started_i1_t0@1 fluent_started_i0_t0@1))) (let ((.def_305 (ite .def_275 fluent_started_i2_t0@1 .def_304))) (let ((.def_306 (ite .def_277 fluent_started_i0_t1@1 .def_305))) (let ((.def_307 (ite .def_279 fluent_started_i1_t1@1 .def_306))) (let ((.def_308 (ite .def_281 fluent_started_i2_t1@1 .def_307))) (let ((.def_309 (ite .def_283 fluent_started_i0_t2@1 .def_308))) (let ((.def_310 (ite .def_285 fluent_started_i1_t2@1 .def_309))) (let ((.def_311 (ite .def_287 fluent_started_i2_t2@1 .def_310))) (let ((.def_312 (ite .def_289 fluent_started_i0_t3@1 .def_311))) (let ((.def_313 (ite .def_291 fluent_started_i1_t3@1 .def_312))) (let ((.def_314 (ite .def_293 fluent_started_i2_t3@1 .def_313))) (let ((.def_315 (ite .def_295 fluent_started_i0_t4@1 .def_314))) (let ((.def_316 (ite .def_297 fluent_started_i1_t4@1 .def_315))) (let ((.def_317 (ite .def_299 fluent_started_i2_t4@1 .def_316))) (let ((.def_318 (= .def_317 true))) (let ((.def_319 (=> true .def_318))) (let ((.def_320 (= fluent_busy_@1 true))) (let ((.def_321 (=> true .def_320))) (let ((.def_322 (ite .def_18 fluent_counter_t1@0 fluent_counter_t0@0))) (let ((.def_323 (ite .def_17 fluent_counter_t2@0 .def_322))) (let ((.def_324 (ite .def_16 fluent_counter_t3@0 .def_323))) (let ((.def_325 (ite .def_15 fluent_counter_t4@0 .def_324))) (let ((.def_326 (+ .def_325 1.0))) (let ((.def_327 (ite .def_18 fluent_counter_t1@1 fluent_counter_t0@1))) (let ((.def_328 (ite .def_17 fluent_counter_t2@1 .def_327))) (let ((.def_329 (ite .def_16 fluent_counter_t3@1 .def_328))) (let ((.def_330 (ite .def_15 fluent_counter_t4@1 .def_329))) (let ((.def_331 (= .def_330 .def_326))) (let ((.def_332 (=> true .def_331))) (let ((.def_333 (= t@1 t@1))) (let ((.def_334 (and .def_333 .def_332 .def_321 .def_319))) (let ((.def_335 (ite .def_240 fluent_started_i1_t0@0 fluent_started_i0_t0@0))) (let ((.def_336 (ite .def_242 fluent_started_i2_t0@0 .def_335))) (let ((.def_337 (ite .def_244 fluent_started_i0_t1@0 .def_336))) (let ((.def_338 (ite .def_246 fluent_started_i1_t1@0 .def_337))) (let ((.def_339 (ite .def_248 fluent_started_i2_t1@0 .def_338))) (let ((.def_340 (ite .def_250 fluent_started_i0_t2@0 .def_339))) (let ((.def_341 (ite .def_252 fluent_started_i1_t2@0 .def_340))) (let ((.def_342 (ite .def_254 fluent_started_i2_t2@0 .def_341))) (let ((.def_343 (ite .def_256 fluent_started_i0_t3@0 .def_342))) (let ((.def_344 (ite .def_258 fluent_started_i1_t3@0 .def_343))) (let ((.def_345 (ite .def_260 fluent_started_i2_t3@0 .def_344))) (let ((.def_346 (ite .def_262 fluent_started_i0_t4@0 .def_345))) (let ((.def_347 (ite .def_264 fluent_started_i1_t4@0 .def_346))) (let ((.def_348 (ite .def_266 fluent_started_i2_t4@0 .def_347))) (let ((.def_349 (+ t@1 dur_make_treatment@1))) (let ((.def_350 (<= .def_349 t@1))) (let ((.def_351 (< (- 1.0) .def_349))) (let ((.def_352 (and .def_351 .def_350))) (let ((.def_353 (=> .def_352 .def_348))) (let ((.def_354 (ite .def_273 fluent_ready_i1_t0@0 fluent_ready_i0_t0@0))) (let ((.def_355 (ite .def_275 fluent_ready_i2_t0@0 .def_354))) (let ((.def_356 (ite .def_277 fluent_ready_i0_t1@0 .def_355))) (let ((.def_357 (ite .def_279 fluent_ready_i1_t1@0 .def_356))) (let ((.def_358 (ite .def_281 fluent_ready_i2_t1@0 .def_357))) (let ((.def_359 (ite .def_283 fluent_ready_i0_t2@0 .def_358))) (let ((.def_360 (ite .def_285 fluent_ready_i1_t2@0 .def_359))) (let ((.def_361 (ite .def_287 fluent_ready_i2_t2@0 .def_360))) (let ((.def_362 (ite .def_289 fluent_ready_i0_t3@0 .def_361))) (let ((.def_363 (ite .def_291 fluent_ready_i1_t3@0 .def_362))) (let ((.def_364 (ite .def_293 fluent_ready_i2_t3@0 .def_363))) (let ((.def_365 (ite .def_295 fluent_ready_i0_t4@0 .def_364))) (let ((.def_366 (ite .def_297 fluent_ready_i1_t4@0 .def_365))) (let ((.def_367 (ite .def_299 fluent_ready_i2_t4@0 .def_366))) (let ((.def_368 (ite .def_273 fluent_started_i1_t0@0 fluent_started_i0_t0@0))) (let ((.def_369 (ite .def_275 fluent_started_i2_t0@0 .def_368))) (let ((.def_370 (ite .def_277 fluent_started_i0_t1@0 .def_369))) (let ((.def_371 (ite .def_279 fluent_started_i1_t1@0 .def_370))) (let ((.def_372 (ite .def_281 fluent_started_i2_t1@0 .def_371))) (let ((.def_373 (ite .def_283 fluent_started_i0_t2@0 .def_372))) (let ((.def_374 (ite .def_285 fluent_started_i1_t2@0 .def_373))) (let ((.def_375 (ite .def_287 fluent_started_i2_t2@0 .def_374))) (let ((.def_376 (ite .def_289 fluent_started_i0_t3@0 .def_375))) (let ((.def_377 (ite .def_291 fluent_started_i1_t3@0 .def_376))) (let ((.def_378 (ite .def_293 fluent_started_i2_t3@0 .def_377))) (let ((.def_379 (ite .def_295 fluent_started_i0_t4@0 .def_378))) (let ((.def_380 (ite .def_297 fluent_started_i1_t4@0 .def_379))) (let ((.def_381 (ite .def_299 fluent_started_i2_t4@0 .def_380))) (let ((.def_382 (not .def_381))) (let ((.def_383 (ite .def_273 fluent_treated_i1_t0@0 fluent_treated_i0_t0@0))) (let ((.def_384 (ite .def_275 fluent_treated_i2_t0@0 .def_383))) (let ((.def_385 (ite .def_277 fluent_treated_i0_t1@0 .def_384))) (let ((.def_386 (ite .def_279 fluent_treated_i1_t1@0 .def_385))) (let ((.def_387 (ite .def_281 fluent_treated_i2_t1@0 .def_386))) (let ((.def_388 (ite .def_283 fluent_treated_i0_t2@0 .def_387))) (let ((.def_389 (ite .def_285 fluent_treated_i1_t2@0 .def_388))) (let ((.def_390 (ite .def_287 fluent_treated_i2_t2@0 .def_389))) (let ((.def_391 (ite .def_289 fluent_treated_i0_t3@0 .def_390))) (let ((.def_392 (ite .def_291 fluent_treated_i1_t3@0 .def_391))) (let ((.def_393 (ite .def_293 fluent_treated_i2_t3@0 .def_392))) (let ((.def_394 (ite .def_295 fluent_treated_i0_t4@0 .def_393))) (let ((.def_395 (ite .def_297 fluent_treated_i1_t4@0 .def_394))) (let ((.def_396 (ite .def_299 fluent_treated_i2_t4@0 .def_395))) (let ((.def_397 (not .def_396))) (let ((.def_398 (not fluent_busy_@0))) (let ((.def_399 (and .def_18 .def_6))) (let ((.def_400 (ite .def_399 false false))) (let ((.def_401 (and .def_17 .def_6))) (let ((.def_402 (ite .def_401 false .def_400))) (let ((.def_403 (and .def_16 .def_6))) (let ((.def_404 (ite .def_403 false .def_402))) (let ((.def_405 (and .def_15 .def_6))) (let ((.def_406 (ite .def_405 false .def_404))) (let ((.def_407 (and .def_19 .def_5))) (let ((.def_408 (ite .def_407 true .def_406))) (let ((.def_409 (and .def_18 .def_5))) (let ((.def_410 (ite .def_409 false .def_408))) (let ((.def_411 (and .def_17 .def_5))) (let ((.def_412 (ite .def_411 false .def_410))) (let ((.def_413 (and .def_16 .def_5))) (let ((.def_414 (ite .def_413 false .def_412))) (let ((.def_415 (and .def_15 .def_5))) (let ((.def_416 (ite .def_415 false .def_414))) (let ((.def_417 (and .def_19 .def_4))) (let ((.def_418 (ite .def_417 false .def_416))) (let ((.def_419 (and .def_18 .def_4))) (let ((.def_420 (ite .def_419 true .def_418))) (let ((.def_421 (and .def_17 .def_4))) (let ((.def_422 (ite .def_421 false .def_420))) (let ((.def_423 (and .def_16 .def_4))) (let ((.def_424 (ite .def_423 false .def_422))) (let ((.def_425 (and .def_15 .def_4))) (let ((.def_426 (ite .def_425 false .def_424))) (let ((.def_427 (and .def_19 .def_3))) (let ((.def_428 (ite .def_427 false .def_426))) (let ((.def_429 (and .def_18 .def_3))) (let ((.def_430 (ite .def_429 false .def_428))) (let ((.def_431 (and .def_17 .def_3))) (let ((.def_432 (ite .def_431 true .def_430))) (let ((.def_433 (and .def_16 .def_3))) (let ((.def_434 (ite .def_433 false .def_432))) (let ((.def_435 (and .def_15 .def_3))) (let ((.def_436 (ite .def_435 false .def_434))) (let ((.def_437 (and .def_19 .def_2))) (let ((.def_438 (ite .def_437 false .def_436))) (let ((.def_439 (and .def_18 .def_2))) (let ((.def_440 (ite .def_439 false .def_438))) (let ((.def_441 (and .def_17 .def_2))) (let ((.def_442 (ite .def_441 false .def_440))) (let ((.def_443 (and .def_16 .def_2))) (let ((.def_444 (ite .def_443 true .def_442))) (let ((.def_445 (and .def_15 .def_2))) (let ((.def_446 (ite .def_445 false .def_444))) (let ((.def_447 (ite .def_10 1.0 0.0))) (let ((.def_448 (ite .def_9 2.0 .def_447))) (let ((.def_449 (= .def_448 .def_325))) (let ((.def_450 (and .def_449 .def_446 .def_398 .def_397 .def_382 .def_367))) (let ((.def_451 (<= t@1 t@1))) (let ((.def_452 (< (- 1.0) t@1))) (let ((.def_453 (and .def_452 .def_451))) (let ((.def_454 (=> .def_453 .def_450))) (let ((.def_455 (<= dur_make_treatment@1 15.0))) (let ((.def_456 (<= 15.0 dur_make_treatment@1))) (let ((.def_457 (and .def_456 .def_455))) (let ((.def_458 (and .def_457 .def_350 .def_454 .def_353 .def_334 .def_303 .def_270))) (let ((.def_459 (=> act_make_treatment@1 .def_458))) (let ((.def_460 (<= fluent_counter_t4@0 31.0))) (let ((.def_461 (<= 0.0 fluent_counter_t4@0))) (let ((.def_462 (<= fluent_counter_t3@0 31.0))) (let ((.def_463 (<= 0.0 fluent_counter_t3@0))) (let ((.def_464 (<= fluent_counter_t2@0 31.0))) (let ((.def_465 (<= 0.0 fluent_counter_t2@0))) (let ((.def_466 (<= fluent_counter_t1@0 31.0))) (let ((.def_467 (<= 0.0 fluent_counter_t1@0))) (let ((.def_468 (<= fluent_counter_t0@0 31.0))) (let ((.def_469 (<= 0.0 fluent_counter_t0@0))) (let ((.def_470 (= fluent_counter_t4@0 0.0))) (let ((.def_471 (= fluent_counter_t3@0 0.0))) (let ((.def_472 (= fluent_counter_t2@0 0.0))) (let ((.def_473 (= fluent_counter_t1@0 0.0))) (let ((.def_474 (= fluent_counter_t0@0 0.0))) (let ((.def_475 (= false false))) (let ((.def_476 (= fluent_ready_i2_t4@0 false))) (let ((.def_477 (= fluent_ready_i1_t4@0 false))) (let ((.def_478 (= fluent_ready_i0_t4@0 false))) (let ((.def_479 (= fluent_ready_i2_t3@0 false))) (let ((.def_480 (= fluent_ready_i1_t3@0 false))) (let ((.def_481 (= fluent_ready_i0_t3@0 false))) (let ((.def_482 (= fluent_ready_i2_t2@0 false))) (let ((.def_483 (= fluent_ready_i1_t2@0 false))) (let ((.def_484 (= fluent_ready_i0_t2@0 false))) (let ((.def_485 (= fluent_ready_i2_t1@0 false))) (let ((.def_486 (= fluent_ready_i1_t1@0 false))) (let ((.def_487 (= fluent_ready_i0_t1@0 false))) (let ((.def_488 (= fluent_started_i2_t3@0 false))) (let ((.def_489 (= fluent_started_i1_t3@0 false))) (let ((.def_490 (= fluent_started_i0_t3@0 false))) (let ((.def_491 (= fluent_started_i2_t2@0 false))) (let ((.def_492 (= fluent_started_i1_t2@0 false))) (let ((.def_493 (= fluent_started_i0_t2@0 false))) (let ((.def_494 (= fluent_started_i2_t1@0 false))) (let ((.def_495 (= fluent_started_i1_t1@0 false))) (let ((.def_496 (= fluent_started_i0_t1@0 false))) (let ((.def_497 (= fluent_started_i2_t0@0 false))) (let ((.def_498 (= fluent_started_i1_t0@0 false))) (let ((.def_499 (= fluent_started_i0_t0@0 false))) (let ((.def_500 (= fluent_treated_i2_t4@0 false))) (let ((.def_501 (= fluent_treated_i1_t4@0 false))) (let ((.def_502 (= fluent_treated_i0_t4@0 false))) (let ((.def_503 (= fluent_treated_i2_t3@0 false))) (let ((.def_504 (= fluent_treated_i1_t3@0 false))) (let ((.def_505 (= fluent_treated_i0_t3@0 false))) (let ((.def_506 (= fluent_treated_i2_t2@0 false))) (let ((.def_507 (= fluent_treated_i1_t2@0 false))) (let ((.def_508 (= fluent_treated_i0_t2@0 false))) (let ((.def_509 (= fluent_treated_i2_t1@0 false))) (let ((.def_510 (= fluent_treated_i1_t1@0 false))) (let ((.def_511 (= fluent_treated_i0_t1@0 false))) (let ((.def_512 (= fluent_treated_i2_t0@0 false))) (let ((.def_513 (= fluent_treated_i1_t0@0 false))) (let ((.def_514 (= fluent_treated_i0_t0@0 false))) (let ((.def_515 (= fluent_busy_@0 false))) (let ((.def_516 (= fluent_ready_i2_t0@0 true))) (let ((.def_517 (= fluent_started_i2_t4@0 true))) (let ((.def_518 (= fluent_ready_i1_t0@0 true))) (let ((.def_519 (= fluent_started_i1_t4@0 true))) (let ((.def_520 (= fluent_ready_i0_t0@0 true))) (let ((.def_521 (= fluent_started_i0_t4@0 true))) (let ((.def_522 (= true true))) (let ((.def_523 (= 2.0 2.0))) (let ((.def_524 (= 1.0 1.0))) (let ((.def_525 (= 0.0 0.0))) (let ((.def_526 (and .def_525 .def_524 .def_523 .def_522 .def_522 .def_522 .def_522 .def_521 .def_520 .def_519 .def_518 .def_517 .def_516 .def_515 .def_514 .def_513 .def_512 .def_511 .def_510 .def_509 .def_508 .def_507 .def_506 .def_505 .def_504 .def_503 .def_502 .def_501 .def_500 .def_499 .def_498 .def_497 .def_496 .def_495 .def_494 .def_493 .def_492 .def_491 .def_490 .def_489 .def_488 .def_487 .def_486 .def_485 .def_484 .def_483 .def_482 .def_481 .def_480 .def_479 .def_478 .def_477 .def_476 .def_475 .def_475 .def_475 .def_475 .def_475 .def_475 .def_475 .def_475 .def_475 .def_475 .def_475 .def_475 .def_475 .def_475 .def_475 .def_475 .def_475 .def_475 .def_475 .def_475 .def_475 .def_474 .def_473 .def_472 .def_471 .def_470 .def_469 .def_468 .def_467 .def_466 .def_465 .def_464 .def_463 .def_462 .def_461 .def_460))) (let ((.def_527 (and .def_526 .def_459 .def_239 true true .def_238 .def_25 .def_24 .def_23 .def_22 .def_21 .def_20 .def_14 .def_13 .def_12 .def_8 .def_7 .def_1 .def_0 true))) .def_527)))))))))))))))))))))))))))))))))))))))))))))))))))))))))))))))))))))))))))))))))))))))))))))))))))))))))))))))))))))))))))))))))))))))))))))))))))))))))))))))))))))))))))))))))))))))))))))))))))))))))))))))))))))))))))))))))))))))))))))))))))))))))))))))))))))))))))))))))))))))))))))))))))))))))))))))))))))))))))))))))))))))))))))))))))))))))))))))))))))))))))))))))))))))))))))))))))))))))))))))))))))))))))))))))))))))))))))))))))))))))))))))))))))))))))))))))))))))))))))))))))))))))))))))))))))))))))))))))))))))))))))))))
(check-sat)
